p cnf 115 378
1 2 3 4 5 0
6 7 8 9 10 0
11 12 13 14 15 0
16 17 18 19 20 0
21 22 23 24 25 0
26 27 28 29 30 0
31 32 33 34 35 0
36 37 38 39 40 0
41 42 43 44 45 0
46 47 48 49 50 0
51 52 53 54 55 0
56 57 58 59 60 0
61 62 63 64 65 0
66 67 68 69 70 0
71 72 73 74 75 0
76 77 78 79 80 0
81 82 83 84 85 0
86 87 88 89 90 0
91 92 93 94 95 0
96 97 98 99 100 0
101 102 103 104 105 0
106 107 108 109 110 0
111 112 113 114 115 0
-1 -6 0
-2 -7 0
-3 -8 0
-4 -9 0
-5 -10 0
-11 -6 0
-12 -7 0
-13 -8 0
-14 -9 0
-15 -10 0
-1 -16 0
-2 -17 0
-3 -18 0
-4 -19 0
-5 -20 0
-11 -21 0
-12 -22 0
-13 -23 0
-14 -24 0
-15 -25 0
-16 -21 0
-17 -22 0
-18 -23 0
-19 -24 0
-20 -25 0
-26 -6 0
-27 -7 0
-28 -8 0
-29 -9 0
-30 -10 0
-1 -31 0
-2 -32 0
-3 -33 0
-4 -34 0
-5 -35 0
-36 -6 0
-37 -7 0
-38 -8 0
-39 -9 0
-40 -10 0
-11 -31 0
-12 -32 0
-13 -33 0
-14 -34 0
-15 -35 0
-26 -16 0
-27 -17 0
-28 -18 0
-29 -19 0
-30 -20 0
-1 -41 0
-2 -42 0
-3 -43 0
-4 -44 0
-5 -45 0
-36 -21 0
-37 -22 0
-38 -23 0
-39 -24 0
-40 -25 0
-11 -46 0
-12 -47 0
-13 -48 0
-14 -49 0
-15 -50 0
-41 -21 0
-42 -22 0
-43 -23 0
-44 -24 0
-45 -25 0
-16 -46 0
-17 -47 0
-18 -48 0
-19 -49 0
-20 -50 0
-26 -51 0
-27 -52 0
-28 -53 0
-29 -54 0
-30 -55 0
-31 -51 0
-32 -52 0
-33 -53 0
-34 -54 0
-35 -55 0
-36 -51 0
-37 -52 0
-38 -53 0
-39 -54 0
-40 -55 0
-41 -51 0
-42 -52 0
-43 -53 0
-44 -54 0
-45 -55 0
-46 -51 0
-47 -52 0
-48 -53 0
-49 -54 0
-50 -55 0
-56 -6 0
-57 -7 0
-58 -8 0
-59 -9 0
-60 -10 0
-1 -61 0
-2 -62 0
-3 -63 0
-4 -64 0
-5 -65 0
-66 -6 0
-67 -7 0
-68 -8 0
-69 -9 0
-70 -10 0
-11 -61 0
-12 -62 0
-13 -63 0
-14 -64 0
-15 -65 0
-56 -16 0
-57 -17 0
-58 -18 0
-59 -19 0
-60 -20 0
-1 -71 0
-2 -72 0
-3 -73 0
-4 -74 0
-5 -75 0
-66 -21 0
-67 -22 0
-68 -23 0
-69 -24 0
-70 -25 0
-11 -76 0
-12 -77 0
-13 -78 0
-14 -79 0
-15 -80 0
-71 -21 0
-72 -22 0
-73 -23 0
-74 -24 0
-75 -25 0
-16 -76 0
-17 -77 0
-18 -78 0
-19 -79 0
-20 -80 0
-81 -6 0
-82 -7 0
-83 -8 0
-84 -9 0
-85 -10 0
-26 -61 0
-27 -62 0
-28 -63 0
-29 -64 0
-30 -65 0
-56 -31 0
-57 -32 0
-58 -33 0
-59 -34 0
-60 -35 0
-1 -86 0
-2 -87 0
-3 -88 0
-4 -89 0
-5 -90 0
-91 -6 0
-92 -7 0
-93 -8 0
-94 -9 0
-95 -10 0
-36 -61 0
-37 -62 0
-38 -63 0
-39 -64 0
-40 -65 0
-66 -31 0
-67 -32 0
-68 -33 0
-69 -34 0
-70 -35 0
-11 -86 0
-12 -87 0
-13 -88 0
-14 -89 0
-15 -90 0
-81 -16 0
-82 -17 0
-83 -18 0
-84 -19 0
-85 -20 0
-26 -71 0
-27 -72 0
-28 -73 0
-29 -74 0
-30 -75 0
-56 -41 0
-57 -42 0
-58 -43 0
-59 -44 0
-60 -45 0
-1 -96 0
-2 -97 0
-3 -98 0
-4 -99 0
-5 -100 0
-91 -21 0
-92 -22 0
-93 -23 0
-94 -24 0
-95 -25 0
-36 -76 0
-37 -77 0
-38 -78 0
-39 -79 0
-40 -80 0
-66 -46 0
-67 -47 0
-68 -48 0
-69 -49 0
-70 -50 0
-11 -101 0
-12 -102 0
-13 -103 0
-14 -104 0
-15 -105 0
-96 -21 0
-97 -22 0
-98 -23 0
-99 -24 0
-100 -25 0
-41 -76 0
-42 -77 0
-43 -78 0
-44 -79 0
-45 -80 0
-71 -46 0
-72 -47 0
-73 -48 0
-74 -49 0
-75 -50 0
-16 -101 0
-17 -102 0
-18 -103 0
-19 -104 0
-20 -105 0
-81 -51 0
-82 -52 0
-83 -53 0
-84 -54 0
-85 -55 0
-26 -106 0
-27 -107 0
-28 -108 0
-29 -109 0
-30 -110 0
-86 -51 0
-87 -52 0
-88 -53 0
-89 -54 0
-90 -55 0
-31 -106 0
-32 -107 0
-33 -108 0
-34 -109 0
-35 -110 0
-91 -51 0
-92 -52 0
-93 -53 0
-94 -54 0
-95 -55 0
-36 -106 0
-37 -107 0
-38 -108 0
-39 -109 0
-40 -110 0
-96 -51 0
-97 -52 0
-98 -53 0
-99 -54 0
-100 -55 0
-41 -106 0
-42 -107 0
-43 -108 0
-44 -109 0
-45 -110 0
-101 -51 0
-102 -52 0
-103 -53 0
-104 -54 0
-105 -55 0
-46 -106 0
-47 -107 0
-48 -108 0
-49 -109 0
-50 -110 0
-56 -111 0
-57 -112 0
-58 -113 0
-59 -114 0
-60 -115 0
-61 -111 0
-62 -112 0
-63 -113 0
-64 -114 0
-65 -115 0
-66 -111 0
-67 -112 0
-68 -113 0
-69 -114 0
-70 -115 0
-71 -111 0
-72 -112 0
-73 -113 0
-74 -114 0
-75 -115 0
-76 -111 0
-77 -112 0
-78 -113 0
-79 -114 0
-80 -115 0
-81 -111 0
-82 -112 0
-83 -113 0
-84 -114 0
-85 -115 0
-86 -111 0
-87 -112 0
-88 -113 0
-89 -114 0
-90 -115 0
-91 -111 0
-92 -112 0
-93 -113 0
-94 -114 0
-95 -115 0
-96 -111 0
-97 -112 0
-98 -113 0
-99 -114 0
-100 -115 0
-101 -111 0
-102 -112 0
-103 -113 0
-104 -114 0
-105 -115 0
-106 -111 0
-107 -112 0
-108 -113 0
-109 -114 0
-110 -115 0
